NAME : XML100_1246_04
DIMENSION : 101
NB_CLUSTERS : 10
CLUSTERING_ALG : KMedoids
CLUSTERING_PARAMS : k(9)
CLUSTERS
1 0
2 21 29 32 56 69 70 88 93 97
3 10 13 49 71 84
4 12 17 24 34 35 37 52 55 58 59 66 76 78 80 98
5 1 3 7 8 11 19 25 28 30 33 38 41 42 43 44 47 50 65 77 81 87 90 91 96
6 5 14 16 46 54 64 72 75 86 92
7 2 18 26 40 60 61 68 82 89 95 100
8 4 15 22 27 51 63 94
9 9 31 36 74
10 6 20 23 39 45 48 53 57 62 67 73 79 83 85 99
EOF